(declare-fun papp7 () Int)
(declare-fun GHC.Base.id () Int)
(declare-fun lq_karg$36$lq_anf$36$$35$$35$7205759403792807997$35$$35$d3Kd$35$$35$k_$35$$35$934 () Str)
(declare-fun lq_tmp$36$x$35$$35$854 () Int)
(declare-fun totalityError () Int)
(declare-fun lq_anf$36$$35$$35$7205759403792807997$35$$35$d3Kd () Str)
(declare-fun lq_anf$36$$35$$35$7205759403792808036$35$$35$d3KQ () Int)
(declare-fun lq_tmp$36$x$35$$35$595 () Int)
(declare-fun GHC.Types.$91$$93$ () Int)
(declare-fun lq_karg$36$lq_anf$36$$35$$35$7205759403792808004$35$$35$d3Kk$35$$35$k_$35$$35$934 () Str)
(declare-fun GHC.Types.Word32Rep () Int)
(declare-fun GHC.Stable.StablePtr () Int)
(declare-fun GHC.Real.divMod () Int)
(declare-fun GHC.Prim.$62$$61$$35$ () Int)
(declare-fun GHC.Word.$36$fNumWord64 () Int)
(declare-fun lq_tmp$36$x$35$$35$468 () Int)
(declare-fun GHC.Types.BoxedRep () Int)
(declare-fun GHC.Float.sinh () Int)
(declare-fun GHC.Prim.$40$$35$$44$$44$$44$$44$$44$$44$$44$$35$$41$ () Int)
(declare-fun fix$36$$36$dIP_a3Iy () Int)
(declare-fun lq_tmp$36$x$35$$35$1333 () Int)
(declare-fun lq_karg$36$lq_anf$36$$35$$35$7205759403792808011$35$$35$d3Kr$35$$35$k_$35$$35$934 () Int)
(declare-fun lq_anf$36$$35$$35$7205759403792808015$35$$35$d3Kv () Int)
(declare-fun lq_karg$36$lq_anf$36$$35$$35$7205759403792808019$35$$35$d3Kz$35$$35$k_$35$$35$934 () Str)
(declare-fun lq_tmp$36$x$35$$35$1773 () Int)
(declare-fun VV$35$$35$F$35$$35$20 () Int)
(declare-fun GHC.Types.C$35$ () Int)
(declare-fun lq_anf$36$$35$$35$7205759403792808019$35$$35$d3Kz () Str)
(declare-fun lq_karg$36$lq_anf$36$$35$$35$7205759403792808015$35$$35$d3Kv$35$$35$k_$35$$35$934 () Int)
(declare-fun GHC.Real.$47$ () Int)
(declare-fun f32$35$$35$a3Hq () Int)
(declare-fun GHC.Float.atanh () Int)
(declare-fun lq_anf$36$$35$$35$7205759403792808011$35$$35$d3Kr () Int)
(declare-fun lq_tmp$36$x$35$$35$887 () Int)
(declare-fun GHC.Float.tan () Int)
(declare-fun GHC.Word.W32$35$ () Int)
(declare-fun GHC.Types.$58$ () Int)
(declare-fun Data.Bits.And () Int)
(declare-fun tail () Int)
(declare-fun lit$36$Data.ByteString.Builder.Prim.Internal.UncheckedShifts () Str)
(declare-fun lq_tmp$36$x$35$$35$1084 () Int)
(declare-fun GHC.Float.asinh () Int)
(declare-fun ds_d3JT () Int)
(declare-fun lq_anf$36$$35$$35$7205759403792808027$35$$35$d3KH () Int)
(declare-fun GHC.Types.Word8Rep () Int)
(declare-fun lq_karg$36$lq_anf$36$$35$$35$7205759403792807999$35$$35$d3Kf$35$$35$k_$35$$35$934 () Str)
(declare-fun lq_karg$36$lq_anf$36$$35$$35$7205759403792808030$35$$35$d3KK$35$$35$k_$35$$35$934 () Int)
(declare-fun GHC.Float.pi () Int)
(declare-fun GHC.Real.div () Int)
(declare-fun lq_anf$36$$35$$35$7205759403792807999$35$$35$d3Kf () Str)
(declare-fun ds_d3K0 () Int)
(declare-fun GHC.Bits.$36$fBitsWord () Int)
(declare-fun w$35$$35$a3Hi () Int)
(declare-fun GHC.Float.tanh () Int)
(declare-fun lq_tmp$36$x$35$$35$1292 () Int)
(declare-fun lq_karg$36$lq_anf$36$$35$$35$7205759403792808034$35$$35$d3KO$35$$35$k_$35$$35$934 () Int)
(declare-fun lq_anf$36$$35$$35$7205759403792808038$35$$35$d3KS () Str)
(declare-fun GHC.Word.W8$35$ () Int)
(declare-fun lq_tmp$36$x$35$$35$1651 () Int)
(declare-fun Data.Bits.Xor () Int)
(declare-fun lq_anf$36$$35$$35$7205759403792808002$35$$35$d3Ki () Str)
(declare-fun GHC.Tuple.$40$$44$$41$ () Int)
(declare-fun GHC.Real.$94$ () Int)
(declare-fun lq_anf$36$$35$$35$7205759403792808006$35$$35$d3Km () Int)
(declare-fun fix$36$$36$dIP_a3IM () Int)
(declare-fun lq_tmp$36$x$35$$35$1610 () Int)
(declare-fun lq_anf$36$$35$$35$7205759403792808037$35$$35$d3KR () Int)
(declare-fun lq_anf$36$$35$$35$7205759403792808035$35$$35$d3KP () Int)
(declare-fun GHC.Base.$36$ () Int)
(declare-fun GHC.Show.show () Int)
(declare-fun GHC.Types.W$35$ () Int)
(declare-fun lq_tmp$36$x$35$$35$1609 () Int)
(declare-fun papp5 () Int)
(declare-fun lq_tmp$36$x$35$$35$812 () Int)
(declare-fun GHC.Types.Word16Rep () Int)
(declare-fun snd () Int)
(declare-fun lq_tmp$36$x$35$$35$1022 () Int)
(declare-fun lq_anf$36$$35$$35$7205759403792808021$35$$35$d3KB () Str)
(declare-fun GHC.Base.$43$$43$ () Int)
(declare-fun GHC.Maybe.Just () Int)
(declare-fun x_Tuple22 () Int)
(declare-fun lq_anf$36$$35$$35$7205759403792808040$35$$35$d3KU () Str)
(declare-fun lq_anf$36$$35$$35$7205759403792808029$35$$35$d3KJ () Int)
(declare-fun lq_karg$36$lq_anf$36$$35$$35$7205759403792808009$35$$35$d3Kp$35$$35$k_$35$$35$934 () Int)
(declare-fun lq_anf$36$$35$$35$7205759403792808025$35$$35$d3KF () Int)
(declare-fun GHC.Real.fromIntegral () Int)
(declare-fun lit$36$caseWordSize_32_64$58$$32$unsupported$32$Word$32$bit$45$size$32$ () Str)
(declare-fun GHC.IO.Exception.IOError () Int)
(declare-fun lq_anf$36$$35$$35$7205759403792808064$35$$35$d3Li () Int)
(declare-fun GHC.Prim.$45$$35$ () Int)
(declare-fun lq_anf$36$$35$$35$7205759403792808066$35$$35$d3Lk () Int)
(declare-fun lq_anf$36$$35$$35$7205759403792808032$35$$35$d3KM () Int)
(declare-fun GHC.Types.Module () Int)
(declare-fun GHC.Stack.Types.FreezeCallStack () Int)
(declare-fun GHC.Types.TrNameD () Int)
(declare-fun lq_karg$36$f32$35$$35$a3Hq$35$$35$k_$35$$35$934 () Int)
(declare-fun GHC.Types.Word64Rep () Int)
(declare-fun GHC.Base.$58$$124$ () Int)
(declare-fun lit$36$main () Str)
(declare-fun ds_d3JV () Int)
(declare-fun GHC.Float.sqrt () Int)
(declare-fun GHC.Prim.$62$$35$ () Int)
(declare-fun lq_anf$36$$35$$35$7205759403792808043$35$$35$d3KX () Int)
(declare-fun lq_tmp$36$x$35$$35$1781 () Int)
(declare-fun lq_anf$36$$35$$35$7205759403792807998$35$$35$d3Ke () Str)
(declare-fun w$35$$35$a3Hk () Int)
(declare-fun GHC.Types.IntRep () Int)
(declare-fun GHC.Prim.$43$$35$ () Int)
(declare-fun lq_tmp$36$x$35$$35$1366 () Int)
(declare-fun lq_tmp$36$x$35$$35$1290 () Int)
(declare-fun GHC.Prim.$40$$35$$44$$44$$44$$44$$44$$44$$44$$44$$44$$44$$44$$44$$44$$44$$44$$44$$44$$44$$44$$44$$44$$44$$44$$44$$44$$44$$44$$44$$44$$44$$44$$44$$44$$44$$44$$44$$44$$44$$44$$44$$44$$44$$44$$44$$44$$44$$44$$44$$44$$44$$44$$44$$44$$44$$44$$44$$44$$44$$44$$44$$44$$44$$44$$35$$41$ () Int)
(declare-fun GHC.Prim.$40$$35$$44$$44$$44$$44$$44$$44$$44$$44$$44$$44$$44$$44$$44$$44$$44$$44$$44$$44$$44$$44$$44$$44$$44$$44$$44$$44$$44$$44$$44$$44$$44$$35$$41$ () Int)
(declare-fun GHC.Types.DoubleRep () Int)
(declare-fun Data.ByteString.Builder.Prim.Internal.UncheckedShifts.shiftr_w () Int)
(declare-fun lit$36$undefined () Str)
(declare-fun lit$36$$47$Users$47$pratyushsahu$47$Desktop$47$Research$47$bytestring_lh$45$llm$47$Data$47$ByteString$47$Builder$47$Prim$47$Internal$47$UncheckedShifts.hs () Str)
(declare-fun GHC.Types.Int8Rep () Int)
(declare-fun lq_karg$36$lq_anf$36$$35$$35$7205759403792808012$35$$35$d3Ks$35$$35$k_$35$$35$934 () Int)
(declare-fun GHC.Real.$36$fIntegralWord () Int)
(declare-fun lq_karg$36$lq_anf$36$$35$$35$7205759403792808010$35$$35$d3Kq$35$$35$k_$35$$35$934 () Int)
(declare-fun addrLen () Int)
(declare-fun GHC.Real.$36$W$58$$37$ () Int)
(declare-fun lq_karg$36$lq_anf$36$$35$$35$7205759403792808018$35$$35$d3Ky$35$$35$k_$35$$35$934 () Str)
(declare-fun lq_karg$36$lq_anf$36$$35$$35$7205759403792808016$35$$35$d3Kw$35$$35$k_$35$$35$934 () Str)
(declare-fun lq_karg$36$lq_anf$36$$35$$35$7205759403792808014$35$$35$d3Ku$35$$35$k_$35$$35$934 () Int)
(declare-fun lq_karg$36$lq_tmp$36$x$35$$35$472$35$$35$k_$35$$35$477 () Int)
(declare-fun GHC.Types.WordRep () Int)
(declare-fun papp3 () Int)
(declare-fun GHC.Real.toInteger () Int)
(declare-fun lq_anf$36$$35$$35$7205759403792807995$35$$35$d3Kb () Int)
(declare-fun lq_anf$36$$35$$35$7205759403792808028$35$$35$d3KI () Int)
(declare-fun lit$36$TODO$58$LH () Str)
(declare-fun lq_anf$36$$35$$35$7205759403792808022$35$$35$d3KC () Str)
(declare-fun GHC.Float.logBase () Int)
(declare-fun lq_anf$36$$35$$35$7205759403792808024$35$$35$d3KE () Int)
(declare-fun lq_anf$36$$35$$35$7205759403792808026$35$$35$d3KG () Int)
(declare-fun lit$36$error () Str)
(declare-fun lq_karg$36$lq_anf$36$$35$$35$7205759403792808006$35$$35$d3Km$35$$35$k_$35$$35$934 () Int)
(declare-fun lq_anf$36$$35$$35$7205759403792808041$35$$35$d3KV () Str)
(declare-fun GHC.Bits.bitSize () Int)
(declare-fun lq_karg$36$lq_anf$36$$35$$35$7205759403792808002$35$$35$d3Ki$35$$35$k_$35$$35$934 () Str)
(declare-fun lq_anf$36$$35$$35$7205759403792808020$35$$35$d3KA () Str)
(declare-fun GHC.Show.$36$fShowInt () Int)
(declare-fun GHC.Ptr.FunPtr () Int)
(declare-fun lq_anf$36$$35$$35$7205759403792808089$35$$35$d3LH () Int)
(declare-fun GHC.Enum.C$58$Bounded () Int)
(declare-fun lq_anf$36$$35$$35$7205759403792808017$35$$35$d3Kx () Str)
(declare-fun lq_karg$36$lq_anf$36$$35$$35$7205759403792808033$35$$35$d3KN$35$$35$k_$35$$35$934 () Int)
(declare-fun lq_karg$36$lq_anf$36$$35$$35$7205759403792808031$35$$35$d3KL$35$$35$k_$35$$35$934 () Int)
(declare-fun GHC.Types.True () Bool)
(declare-fun GHC.CString.unpackCString$35$ () Int)
(declare-fun Foreign.Marshal.Pool.Pool () Int)
(declare-fun GHC.Float.asin () Int)
(declare-fun lq_karg$36$lq_anf$36$$35$$35$7205759403792808017$35$$35$d3Kx$35$$35$k_$35$$35$934 () Str)
(declare-fun lq_anf$36$$35$$35$7205759403792808033$35$$35$d3KN () Int)
(declare-fun lq_anf$36$$35$$35$7205759403792808031$35$$35$d3KL () Int)
(declare-fun GHC.Prim.$40$$35$$44$$44$$44$$35$$41$ () Int)
(declare-fun lq_anf$36$$35$$35$7205759403792808009$35$$35$d3Kp () Int)
(declare-fun GHC.Stack.Types.EmptyCallStack () Int)
(declare-fun x_Tuple33 () Int)
(declare-fun Data.Either.Right () Int)
(declare-fun GHC.Float.atan () Int)
(declare-fun GHC.Float.$42$$42$ () Int)
(declare-fun GHC.Stack.Types.emptyCallStack () Int)
(declare-fun i$35$$35$a3Hn () Int)
(declare-fun cast_as () Int)
(declare-fun GHC.Ptr.Ptr () Int)
(declare-fun lq_karg$36$f64$35$$35$a3Hr$35$$35$k_$35$$35$934 () Int)
(declare-fun cast_as_int () Int)
(declare-fun VV$35$$35$F$35$$35$26 () Str)
(declare-fun GHC.Num.$43$ () Int)
(declare-fun GHC.Types.F$35$ () Int)
(declare-fun lq_tmp$36$x$35$$35$1327 () Int)
(declare-fun lq_anf$36$$35$$35$7205759403792808008$35$$35$d3Ko () Int)
(declare-fun GHC.Base.assert () Int)
(declare-fun s$35$$35$a3Hj () Int)
(declare-fun lq_tmp$36$x$35$$35$637 () Int)
(declare-fun lq_tmp$36$x$35$$35$471 () Int)
(declare-fun lq_anf$36$$35$$35$7205759403792808000$35$$35$d3Kg () Str)
(declare-fun i$35$$35$a3Hp () Int)
(declare-fun len () Int)
(declare-fun GHC.Prim.$40$$35$$44$$44$$35$$41$ () Int)
(declare-fun ds_d3K7 () Int)
(declare-fun lq_tmp$36$x$35$$35$1056 () Int)
(declare-fun Data.Bits.Ior () Int)
(declare-fun GHC.Types.Int64Rep () Int)
(declare-fun GHC.Types.LT () Int)
(declare-fun GHC.Tuple.$40$$44$$44$$41$ () Int)
(declare-fun papp1 () Int)
(declare-fun GHC.Err.undefined () Int)
(declare-fun GHC.Types.AddrRep () Int)
(declare-fun GHC.Prim.$60$$35$ () Int)
(declare-fun lq_tmp$36$x$35$$35$594 () Int)
(declare-fun lq_karg$36$VV$35$$35$476$35$$35$k_$35$$35$477 () Int)
(declare-fun lq_karg$36$lq_anf$36$$35$$35$7205759403792808023$35$$35$d3KD$35$$35$k_$35$$35$934 () Str)
(declare-fun papp6 () Int)
(declare-fun GHC.Real.mod () Int)
(declare-fun lq_tmp$36$x$35$$35$1455 () Int)
(declare-fun lq_tmp$36$x$35$$35$811 () Int)
(declare-fun GHC.Float.acos () Int)
(declare-fun lq_anf$36$$35$$35$7205759403792808047$35$$35$d3L1 () Int)
(declare-fun GHC.Classes.C$58$IP () Int)
(declare-fun Data.Either.Left () Int)
(declare-fun lq_tmp$36$x$35$$35$1810 () Int)
(declare-fun lq_tmp$36$x$35$$35$1463 () Int)
(declare-fun liquid_internal_this () Int)
(declare-fun GHC.Real.fromRational () Int)
(declare-fun fldList () Int)
(declare-fun lq_anf$36$$35$$35$7205759403792808034$35$$35$d3KO () Int)
(declare-fun GHC.Tuple.$40$$41$ () Int)
(declare-fun lqdc$35$$35$$36$select$35$$35$GHC.Maybe.Just$35$$35$1 () Int)
(declare-fun GHC.Types.I$35$ () Int)
(declare-fun lq_anf$36$$35$$35$7205759403792808030$35$$35$d3KK () Int)
(declare-fun lq_karg$36$lq_anf$36$$35$$35$7205759403792808028$35$$35$d3KI$35$$35$k_$35$$35$934 () Int)
(declare-fun lq_karg$36$lq_anf$36$$35$$35$7205759403792808026$35$$35$d3KG$35$$35$k_$35$$35$934 () Int)
(declare-fun x_Tuple31 () Int)
(declare-fun lq_karg$36$lq_anf$36$$35$$35$7205759403792808022$35$$35$d3KC$35$$35$k_$35$$35$934 () Str)
(declare-fun lq_anf$36$$35$$35$7205759403792808045$35$$35$d3KZ () Int)
(declare-fun lq_karg$36$VV$35$$35$933$35$$35$k_$35$$35$934 () Int)
(declare-fun lq_tmp$36$x$35$$35$1684 () Int)
(declare-fun lq_karg$36$lq_anf$36$$35$$35$7205759403792808020$35$$35$d3KA$35$$35$k_$35$$35$934 () Str)
(declare-fun lq_tmp$36$x$35$$35$1174 () Int)
(declare-fun GHC.Num.Integer.IS () Int)
(declare-fun lq_karg$36$lq_anf$36$$35$$35$7205759403792808024$35$$35$d3KE$35$$35$k_$35$$35$934 () Int)
(declare-fun GHC.Types.FloatRep () Int)
(declare-fun GHC.Word.W16$35$ () Int)
(declare-fun i$35$$35$a3Hl () Int)
(declare-fun GHC.Real.quot () Int)
(declare-fun fix$36$$36$dIP_a3IX () Int)
(declare-fun GHC.Num.$36$fNumWord () Int)
(declare-fun Data.Tuple.fst () Int)
(declare-fun GHC.Word.W64$35$ () Int)
(declare-fun Foreign.Ptr.IntPtr () Int)
(declare-fun GHC.Float.acosh () Int)
(declare-fun lq_anf$36$$35$$35$7205759403792808013$35$$35$d3Kt () Int)
(declare-fun lq_karg$36$lq_anf$36$$35$$35$7205759403792808013$35$$35$d3Kt$35$$35$k_$35$$35$934 () Int)
(declare-fun Data.Tuple.snd () Int)
(declare-fun GHC.Types.isTrue$35$ () Int)
(declare-fun GHC.Types.EQ () Int)
(declare-fun GHC.Real.$58$$37$ () Int)
(declare-fun GHC.Types.MkCoercible () Int)
(declare-fun lq_tmp$36$x$35$$35$631 () Int)
(declare-fun GHC.Types.VecRep () Int)
(declare-fun fst () Int)
(declare-fun lq_karg$36$lq_anf$36$$35$$35$7205759403792808001$35$$35$d3Kh$35$$35$k_$35$$35$934 () Str)
(declare-fun lq_karg$36$lq_anf$36$$35$$35$7205759403792808003$35$$35$d3Kj$35$$35$k_$35$$35$934 () Str)
(declare-fun GHC.Num.negate () Int)
(declare-fun ds_d3K1 () Int)
(declare-fun GHC.Num.$45$ () Int)
(declare-fun GHC.Real.rem () Int)
(declare-fun lq_karg$36$lq_anf$36$$35$$35$7205759403792808005$35$$35$d3Kl$35$$35$k_$35$$35$934 () Int)
(declare-fun GHC.Prim.$40$$35$$35$$41$ () Int)
(declare-fun lq_karg$36$lq_anf$36$$35$$35$7205759403792808007$35$$35$d3Kn$35$$35$k_$35$$35$934 () Int)
(declare-fun lq_karg$36$lq_anf$36$$35$$35$7205759403792808032$35$$35$d3KM$35$$35$k_$35$$35$934 () Int)
(declare-fun GHC.Word.$36$fIntegralWord64 () Int)
(declare-fun lq_tmp$36$x$35$$35$670 () Int)
(declare-fun GHC.Real.recip () Int)
(declare-fun ds_d3K4 () Int)
(declare-fun GHC.Prim.$61$$61$$35$ () Int)
(declare-fun autolen () Int)
(declare-fun GHC.Float.cosh () Int)
(declare-fun w$35$$35$a3Hm () Int)
(declare-fun Data.ByteString.Builder.Prim.Internal.UncheckedShifts.shiftr_w16 () Int)
(declare-fun GHC.Base.. () Int)
(declare-fun lq_tmp$36$x$35$$35$596 () Int)
(declare-fun Data.Bits.Iff () Int)
(declare-fun lq_tmp$36$x$35$$35$1608 () Int)
(declare-fun GHC.Types.Int16Rep () Int)
(declare-fun papp4 () Int)
(declare-fun lq_tmp$36$x$35$$35$813 () Int)
(declare-fun fix$36$$36$dIP_a3J7 () Int)
(declare-fun GHC.Stack.Types.PushCallStack () Int)
(declare-fun lq_karg$36$lq_anf$36$$35$$35$7205759403792808000$35$$35$d3Kg$35$$35$k_$35$$35$934 () Str)
(declare-fun lq_karg$36$lq_anf$36$$35$$35$7205759403792808008$35$$35$d3Ko$35$$35$k_$35$$35$934 () Int)
(declare-fun lq_anf$36$$35$$35$7205759403792808004$35$$35$d3Kk () Str)
(declare-fun GHC.Stack.Types.pushCallStack () Int)
(declare-fun GHC.Real.quotRem () Int)
(declare-fun GHC.Stack.Types.SrcLoc () Int)
(declare-fun f64$35$$35$a3Hr () Int)
(declare-fun GHC.Num.fromInteger () Int)
(declare-fun GHC.Float.log () Int)
(declare-fun lq_karg$36$lq_anf$36$$35$$35$7205759403792807998$35$$35$d3Ke$35$$35$k_$35$$35$934 () Str)
(declare-fun GHC.Types.SumRep () Int)
(declare-fun Data.ByteString.Builder.Prim.Internal.UncheckedShifts.shiftr_w32 () Int)
(declare-fun lq_tmp$36$x$35$$35$1021 () Int)
(declare-fun GHC.Float.sin () Int)
(declare-fun x_Tuple21 () Int)
(declare-fun GHC.ForeignPtr.ForeignPtr () Int)
(declare-fun GHC.Num.abs () Int)
(declare-fun GHC.Prim.$40$$35$$44$$44$$44$$44$$44$$44$$44$$44$$44$$44$$44$$44$$44$$44$$44$$35$$41$ () Int)
(declare-fun head () Int)
(declare-fun lq_karg$36$lq_anf$36$$35$$35$7205759403792808027$35$$35$d3KH$35$$35$k_$35$$35$934 () Int)
(declare-fun GHC.Maybe.Nothing () Int)
(declare-fun lq_anf$36$$35$$35$7205759403792808023$35$$35$d3KD () Str)
(declare-fun GHC.Prim.$60$$61$$35$ () Int)
(declare-fun lq_anf$36$$35$$35$7205759403792808091$35$$35$d3LJ () Int)
(declare-fun GHC.Types.D$35$ () Int)
(declare-fun Data.ByteString.Builder.Prim.Internal.UncheckedShifts.caseWordSize_32_64 () Int)
(declare-fun GHC.Prim.$40$$35$$44$$35$$41$ () Int)
(declare-fun lq_anf$36$$35$$35$7205759403792808010$35$$35$d3Kq () Int)
(declare-fun GHC.Prim.uncheckedShiftRL$35$ () Int)
(declare-fun GHC.Num.Integer.IP () Int)
(declare-fun lq_anf$36$$35$$35$7205759403792808018$35$$35$d3Ky () Str)
(declare-fun Foreign.Ptr.WordPtr () Int)
(declare-fun lq_anf$36$$35$$35$7205759403792808012$35$$35$d3Ks () Int)
(declare-fun lq_anf$36$$35$$35$7205759403792808016$35$$35$d3Kw () Str)
(declare-fun VV$35$$35$F$35$$35$22 () Int)
(declare-fun GHC.Base.map () Int)
(declare-fun lq_anf$36$$35$$35$7205759403792808014$35$$35$d3Ku () Int)
(declare-fun x_Tuple32 () Int)
(declare-fun lq_tmp$36$x$35$$35$1291 () Int)
(declare-fun lq_karg$36$VV$35$$35$473$35$$35$k_$35$$35$474 () Int)
(declare-fun GHC.Err.error () Int)
(declare-fun GHC.Types.TupleRep () Int)
(declare-fun GHC.Float.exp () Int)
(declare-fun ds_d3K3 () Int)
(declare-fun GHC.Types.TrNameS () Int)
(declare-fun lq_tmp$36$x$35$$35$470 () Int)
(declare-fun GHC.Num.Integer.IN () Int)
(declare-fun lq_anf$36$$35$$35$7205759403792808039$35$$35$d3KT () Str)
(declare-fun lq_tmp$36$x$35$$35$1645 () Int)
(declare-fun lq_tmp$36$x$35$$35$1492 () Int)
(declare-fun ds_d3K6 () Int)
(declare-fun GHC.Num.$42$ () Int)
(declare-fun w$35$$35$a3Ho () Int)
(declare-fun GHC.Types.False () Bool)
(declare-fun lq_tmp$36$x$35$$35$848 () Int)
(declare-fun GHC.Prim.Solo$35$ () Int)
(declare-fun papp2 () Int)
(declare-fun lq_anf$36$$35$$35$7205759403792808003$35$$35$d3Kj () Str)
(declare-fun lq_karg$36$lq_anf$36$$35$$35$7205759403792808029$35$$35$d3KJ$35$$35$k_$35$$35$934 () Int)
(declare-fun lq_anf$36$$35$$35$7205759403792808001$35$$35$d3Kh () Str)
(declare-fun GHC.Float.cos () Int)
(declare-fun lq_karg$36$lq_anf$36$$35$$35$7205759403792808025$35$$35$d3KF$35$$35$k_$35$$35$934 () Int)
(declare-fun lq_anf$36$$35$$35$7205759403792808007$35$$35$d3Kn () Int)
(declare-fun GHC.Types.GT () Int)
(declare-fun lq_anf$36$$35$$35$7205759403792808005$35$$35$d3Kl () Int)
(declare-fun lq_karg$36$lq_anf$36$$35$$35$7205759403792808021$35$$35$d3KB$35$$35$k_$35$$35$934 () Str)
(declare-fun GHC.Types.Int32Rep () Int)
(declare-fun Data.ByteString.Builder.Prim.Internal.UncheckedShifts.shiftr_w64 () Int)
(declare-fun apply$35$$35$31 (Int (_ BitVec 64)) Bool)
(declare-fun apply$35$$35$25 (Int (_ BitVec 32)) Bool)
(declare-fun apply$35$$35$1 (Int Int) Bool)
(declare-fun apply$35$$35$5 (Int Int) (_ BitVec 64))
(declare-fun apply$35$$35$4 (Int Int) (_ BitVec 32))
(declare-fun apply$35$$35$8 (Int Bool) Real)
(declare-fun apply$35$$35$35 (Int (_ BitVec 64)) (_ BitVec 64))
(declare-fun apply$35$$35$34 (Int (_ BitVec 64)) (_ BitVec 32))
(declare-fun apply$35$$35$28 (Int (_ BitVec 32)) (_ BitVec 32))
(declare-fun apply$35$$35$29 (Int (_ BitVec 32)) (_ BitVec 64))
(declare-fun apply$35$$35$14 (Int Real) Real)
(declare-fun apply$35$$35$27 (Int (_ BitVec 32)) Str)
(declare-fun apply$35$$35$33 (Int (_ BitVec 64)) Str)
(declare-fun apply$35$$35$19 (Int Str) Bool)
(declare-fun apply$35$$35$6 (Int Bool) Int)
(declare-fun apply$35$$35$13 (Int Real) Bool)
(declare-fun apply$35$$35$21 (Int Str) Str)
(declare-fun apply$35$$35$22 (Int Str) (_ BitVec 32))
(declare-fun apply$35$$35$23 (Int Str) (_ BitVec 64))
(declare-fun apply$35$$35$2 (Int Int) Real)
(declare-fun apply$35$$35$15 (Int Real) Str)
(declare-fun apply$35$$35$30 (Int (_ BitVec 64)) Int)
(declare-fun apply$35$$35$24 (Int (_ BitVec 32)) Int)
(declare-fun apply$35$$35$18 (Int Str) Int)
(declare-fun apply$35$$35$0 (Int Int) Int)
(declare-fun apply$35$$35$9 (Int Bool) Str)
(declare-fun apply$35$$35$10 (Int Bool) (_ BitVec 32))
(declare-fun apply$35$$35$11 (Int Bool) (_ BitVec 64))
(declare-fun apply$35$$35$32 (Int (_ BitVec 64)) Real)
(declare-fun apply$35$$35$26 (Int (_ BitVec 32)) Real)
(declare-fun apply$35$$35$16 (Int Real) (_ BitVec 32))
(declare-fun apply$35$$35$17 (Int Real) (_ BitVec 64))
(declare-fun apply$35$$35$20 (Int Str) Real)
(declare-fun apply$35$$35$3 (Int Int) Str)
(declare-fun apply$35$$35$7 (Int Bool) Bool)
(declare-fun apply$35$$35$12 (Int Real) Int)
(declare-fun coerce$35$$35$31 ((_ BitVec 64)) Bool)
(declare-fun coerce$35$$35$25 ((_ BitVec 32)) Bool)
(declare-fun coerce$35$$35$1 (Int) Bool)
(declare-fun coerce$35$$35$5 (Int) (_ BitVec 64))
(declare-fun coerce$35$$35$4 (Int) (_ BitVec 32))
(declare-fun coerce$35$$35$8 (Bool) Real)
(declare-fun coerce$35$$35$35 ((_ BitVec 64)) (_ BitVec 64))
(declare-fun coerce$35$$35$34 ((_ BitVec 64)) (_ BitVec 32))
(declare-fun coerce$35$$35$28 ((_ BitVec 32)) (_ BitVec 32))
(declare-fun coerce$35$$35$29 ((_ BitVec 32)) (_ BitVec 64))
(declare-fun coerce$35$$35$14 (Real) Real)
(declare-fun coerce$35$$35$27 ((_ BitVec 32)) Str)
(declare-fun coerce$35$$35$33 ((_ BitVec 64)) Str)
(declare-fun coerce$35$$35$19 (Str) Bool)
(declare-fun coerce$35$$35$6 (Bool) Int)
(declare-fun coerce$35$$35$13 (Real) Bool)
(declare-fun coerce$35$$35$21 (Str) Str)
(declare-fun coerce$35$$35$22 (Str) (_ BitVec 32))
(declare-fun coerce$35$$35$23 (Str) (_ BitVec 64))
(declare-fun coerce$35$$35$2 (Int) Real)
(declare-fun coerce$35$$35$15 (Real) Str)
(declare-fun coerce$35$$35$30 ((_ BitVec 64)) Int)
(declare-fun coerce$35$$35$24 ((_ BitVec 32)) Int)
(declare-fun coerce$35$$35$18 (Str) Int)
(declare-fun coerce$35$$35$0 (Int) Int)
(declare-fun coerce$35$$35$9 (Bool) Str)
(declare-fun coerce$35$$35$10 (Bool) (_ BitVec 32))
(declare-fun coerce$35$$35$11 (Bool) (_ BitVec 64))
(declare-fun coerce$35$$35$32 ((_ BitVec 64)) Real)
(declare-fun coerce$35$$35$26 ((_ BitVec 32)) Real)
(declare-fun coerce$35$$35$16 (Real) (_ BitVec 32))
(declare-fun coerce$35$$35$17 (Real) (_ BitVec 64))
(declare-fun coerce$35$$35$20 (Str) Real)
(declare-fun coerce$35$$35$3 (Int) Str)
(declare-fun coerce$35$$35$7 (Bool) Bool)
(declare-fun coerce$35$$35$12 (Real) Int)
(declare-fun smt_lambda$35$$35$31 ((_ BitVec 64) Bool) Int)
(declare-fun smt_lambda$35$$35$25 ((_ BitVec 32) Bool) Int)
(declare-fun smt_lambda$35$$35$1 (Int Bool) Int)
(declare-fun smt_lambda$35$$35$5 (Int (_ BitVec 64)) Int)
(declare-fun smt_lambda$35$$35$4 (Int (_ BitVec 32)) Int)
(declare-fun smt_lambda$35$$35$8 (Bool Real) Int)
(declare-fun smt_lambda$35$$35$35 ((_ BitVec 64) (_ BitVec 64)) Int)
(declare-fun smt_lambda$35$$35$34 ((_ BitVec 64) (_ BitVec 32)) Int)
(declare-fun smt_lambda$35$$35$28 ((_ BitVec 32) (_ BitVec 32)) Int)
(declare-fun smt_lambda$35$$35$29 ((_ BitVec 32) (_ BitVec 64)) Int)
(declare-fun smt_lambda$35$$35$14 (Real Real) Int)
(declare-fun smt_lambda$35$$35$27 ((_ BitVec 32) Str) Int)
(declare-fun smt_lambda$35$$35$33 ((_ BitVec 64) Str) Int)
(declare-fun smt_lambda$35$$35$19 (Str Bool) Int)
(declare-fun smt_lambda$35$$35$6 (Bool Int) Int)
(declare-fun smt_lambda$35$$35$13 (Real Bool) Int)
(declare-fun smt_lambda$35$$35$21 (Str Str) Int)
(declare-fun smt_lambda$35$$35$22 (Str (_ BitVec 32)) Int)
(declare-fun smt_lambda$35$$35$23 (Str (_ BitVec 64)) Int)
(declare-fun smt_lambda$35$$35$2 (Int Real) Int)
(declare-fun smt_lambda$35$$35$15 (Real Str) Int)
(declare-fun smt_lambda$35$$35$30 ((_ BitVec 64) Int) Int)
(declare-fun smt_lambda$35$$35$24 ((_ BitVec 32) Int) Int)
(declare-fun smt_lambda$35$$35$18 (Str Int) Int)
(declare-fun smt_lambda$35$$35$0 (Int Int) Int)
(declare-fun smt_lambda$35$$35$9 (Bool Str) Int)
(declare-fun smt_lambda$35$$35$10 (Bool (_ BitVec 32)) Int)
(declare-fun smt_lambda$35$$35$11 (Bool (_ BitVec 64)) Int)
(declare-fun smt_lambda$35$$35$32 ((_ BitVec 64) Real) Int)
(declare-fun smt_lambda$35$$35$26 ((_ BitVec 32) Real) Int)
(declare-fun smt_lambda$35$$35$16 (Real (_ BitVec 32)) Int)
(declare-fun smt_lambda$35$$35$17 (Real (_ BitVec 64)) Int)
(declare-fun smt_lambda$35$$35$20 (Str Real) Int)
(declare-fun smt_lambda$35$$35$3 (Int Str) Int)
(declare-fun smt_lambda$35$$35$7 (Bool Bool) Int)
(declare-fun smt_lambda$35$$35$12 (Real Int) Int)
(declare-fun lam_arg$35$$35$1$35$$35$6 () Bool)
(declare-fun lam_arg$35$$35$2$35$$35$6 () Bool)
(declare-fun lam_arg$35$$35$3$35$$35$6 () Bool)
(declare-fun lam_arg$35$$35$4$35$$35$6 () Bool)
(declare-fun lam_arg$35$$35$5$35$$35$6 () Bool)
(declare-fun lam_arg$35$$35$6$35$$35$6 () Bool)
(declare-fun lam_arg$35$$35$7$35$$35$6 () Bool)
(declare-fun lam_arg$35$$35$1$35$$35$30 () (_ BitVec 64))
(declare-fun lam_arg$35$$35$2$35$$35$30 () (_ BitVec 64))
(declare-fun lam_arg$35$$35$3$35$$35$30 () (_ BitVec 64))
(declare-fun lam_arg$35$$35$4$35$$35$30 () (_ BitVec 64))
(declare-fun lam_arg$35$$35$5$35$$35$30 () (_ BitVec 64))
(declare-fun lam_arg$35$$35$6$35$$35$30 () (_ BitVec 64))
(declare-fun lam_arg$35$$35$7$35$$35$30 () (_ BitVec 64))
(declare-fun lam_arg$35$$35$1$35$$35$24 () (_ BitVec 32))
(declare-fun lam_arg$35$$35$2$35$$35$24 () (_ BitVec 32))
(declare-fun lam_arg$35$$35$3$35$$35$24 () (_ BitVec 32))
(declare-fun lam_arg$35$$35$4$35$$35$24 () (_ BitVec 32))
(declare-fun lam_arg$35$$35$5$35$$35$24 () (_ BitVec 32))
(declare-fun lam_arg$35$$35$6$35$$35$24 () (_ BitVec 32))
(declare-fun lam_arg$35$$35$7$35$$35$24 () (_ BitVec 32))
(declare-fun lam_arg$35$$35$1$35$$35$18 () Str)
(declare-fun lam_arg$35$$35$2$35$$35$18 () Str)
(declare-fun lam_arg$35$$35$3$35$$35$18 () Str)
(declare-fun lam_arg$35$$35$4$35$$35$18 () Str)
(declare-fun lam_arg$35$$35$5$35$$35$18 () Str)
(declare-fun lam_arg$35$$35$6$35$$35$18 () Str)
(declare-fun lam_arg$35$$35$7$35$$35$18 () Str)
(declare-fun lam_arg$35$$35$1$35$$35$0 () Int)
(declare-fun lam_arg$35$$35$2$35$$35$0 () Int)
(declare-fun lam_arg$35$$35$3$35$$35$0 () Int)
(declare-fun lam_arg$35$$35$4$35$$35$0 () Int)
(declare-fun lam_arg$35$$35$5$35$$35$0 () Int)
(declare-fun lam_arg$35$$35$6$35$$35$0 () Int)
(declare-fun lam_arg$35$$35$7$35$$35$0 () Int)
(declare-fun lam_arg$35$$35$1$35$$35$12 () Real)
(declare-fun lam_arg$35$$35$2$35$$35$12 () Real)
(declare-fun lam_arg$35$$35$3$35$$35$12 () Real)
(declare-fun lam_arg$35$$35$4$35$$35$12 () Real)
(declare-fun lam_arg$35$$35$5$35$$35$12 () Real)
(declare-fun lam_arg$35$$35$6$35$$35$12 () Real)
(declare-fun lam_arg$35$$35$7$35$$35$12 () Real)
(assert (distinct GHC.Prim.$40$$35$$35$$41$ GHC.Tuple.$40$$41$))

(assert (distinct lit$36$error lit$36$TODO$58$LH lit$36$$47$Users$47$pratyushsahu$47$Desktop$47$Research$47$bytestring_lh$45$llm$47$Data$47$ByteString$47$Builder$47$Prim$47$Internal$47$UncheckedShifts.hs lit$36$undefined lit$36$main lit$36$caseWordSize_32_64$58$$32$unsupported$32$Word$32$bit$45$size$32$ lit$36$Data.ByteString.Builder.Prim.Internal.UncheckedShifts))
(assert (distinct GHC.Types.Int32Rep GHC.Types.Int16Rep GHC.Types.FloatRep GHC.Types.AddrRep GHC.Types.Int64Rep GHC.Types.WordRep GHC.Types.Int8Rep GHC.Types.DoubleRep GHC.Types.IntRep GHC.Types.Word64Rep GHC.Types.Word16Rep GHC.Types.Word8Rep GHC.Types.Word32Rep))
(assert (distinct GHC.Types.GT GHC.Types.EQ GHC.Types.LT))
(assert (distinct GHC.Types.False GHC.Types.True))
(assert (= (strLen lit$36$Data.ByteString.Builder.Prim.Internal.UncheckedShifts) 53))
(assert (= (strLen lit$36$caseWordSize_32_64$58$$32$unsupported$32$Word$32$bit$45$size$32$) 46))
(assert (= (strLen lit$36$main) 4))
(assert (= (strLen lit$36$undefined) 9))
(assert (= (strLen lit$36$$47$Users$47$pratyushsahu$47$Desktop$47$Research$47$bytestring_lh$45$llm$47$Data$47$ByteString$47$Builder$47$Prim$47$Internal$47$UncheckedShifts.hs) 111))
(assert (= (strLen lit$36$TODO$58$LH) 7))
(assert (= (strLen lit$36$error) 5))
(push 1)
(define-fun b$36$$35$$35$128 () Bool (= lq_anf$36$$35$$35$7205759403792808012$35$$35$d3Ks lq_anf$36$$35$$35$7205759403792808011$35$$35$d3Kr))
(define-fun b$36$$35$$35$160 () Bool (= lq_anf$36$$35$$35$7205759403792808036$35$$35$d3KQ ds_d3JT))
(define-fun b$36$$35$$35$162 () Bool (and (= lq_anf$36$$35$$35$7205759403792808036$35$$35$d3KQ ds_d3JT) (= lq_anf$36$$35$$35$7205759403792808036$35$$35$d3KQ ds_d3JV) (= lq_anf$36$$35$$35$7205759403792808036$35$$35$d3KQ ds_d3JV)))
(define-fun b$36$$35$$35$131 () Bool (and (= (apply$35$$35$3 (as fst Int) lq_anf$36$$35$$35$7205759403792808014$35$$35$d3Ku) lq_anf$36$$35$$35$7205759403792807998$35$$35$d3Ke) (= (apply$35$$35$0 (as snd Int) lq_anf$36$$35$$35$7205759403792808014$35$$35$d3Ku) lq_anf$36$$35$$35$7205759403792808013$35$$35$d3Kt) (= (apply$35$$35$3 (as x_Tuple21 Int) lq_anf$36$$35$$35$7205759403792808014$35$$35$d3Ku) lq_anf$36$$35$$35$7205759403792807998$35$$35$d3Ke) (= (apply$35$$35$0 (as x_Tuple22 Int) lq_anf$36$$35$$35$7205759403792808014$35$$35$d3Ku) lq_anf$36$$35$$35$7205759403792808013$35$$35$d3Kt)))
(define-fun b$36$$35$$35$163 () Bool (= lq_anf$36$$35$$35$7205759403792808037$35$$35$d3KR ds_d3JV))
(define-fun b$36$$35$$35$323 () Bool (and (= VV$35$$35$F$35$$35$26 lq_anf$36$$35$$35$7205759403792808041$35$$35$d3KV) (= (apply$35$$35$18 (as len Int) VV$35$$35$F$35$$35$26) (+ (apply$35$$35$18 (as len Int) lq_anf$36$$35$$35$7205759403792808039$35$$35$d3KT) (apply$35$$35$18 (as len Int) lq_anf$36$$35$$35$7205759403792808040$35$$35$d3KU))) (>= (apply$35$$35$18 (as len Int) VV$35$$35$F$35$$35$26) 0)))
(define-fun b$36$$35$$35$164 () Bool (and (= lq_anf$36$$35$$35$7205759403792808037$35$$35$d3KR ds_d3JV) (not (= lq_anf$36$$35$$35$7205759403792808037$35$$35$d3KR 32)) (not (= lq_anf$36$$35$$35$7205759403792808037$35$$35$d3KR 64))))
(define-fun b$36$$35$$35$165 () Bool (= lq_anf$36$$35$$35$7205759403792808038$35$$35$d3KS lit$36$caseWordSize_32_64$58$$32$unsupported$32$Word$32$bit$45$size$32$))
(define-fun b$36$$35$$35$134 () Bool (= lq_anf$36$$35$$35$7205759403792808016$35$$35$d3Kw lit$36$undefined))
(define-fun b$36$$35$$35$166 () Bool (and (= (apply$35$$35$18 (as len Int) lq_anf$36$$35$$35$7205759403792808039$35$$35$d3KT) (strLen lq_anf$36$$35$$35$7205759403792808038$35$$35$d3KS)) (>= (apply$35$$35$18 (as len Int) lq_anf$36$$35$$35$7205759403792808039$35$$35$d3KT) 0) (= lq_anf$36$$35$$35$7205759403792808039$35$$35$d3KT lq_anf$36$$35$$35$7205759403792808038$35$$35$d3KS)))
(define-fun b$36$$35$$35$135 () Bool (and (= (apply$35$$35$18 (as len Int) lq_anf$36$$35$$35$7205759403792808017$35$$35$d3Kx) (strLen lq_anf$36$$35$$35$7205759403792808016$35$$35$d3Kw)) (>= (apply$35$$35$18 (as len Int) lq_anf$36$$35$$35$7205759403792808017$35$$35$d3Kx) 0) (= lq_anf$36$$35$$35$7205759403792808017$35$$35$d3Kx lq_anf$36$$35$$35$7205759403792808016$35$$35$d3Kw)))
(define-fun b$36$$35$$35$167 () Bool (>= (apply$35$$35$18 (as len Int) lq_anf$36$$35$$35$7205759403792808040$35$$35$d3KU) 0))
(define-fun b$36$$35$$35$136 () Bool (= lq_anf$36$$35$$35$7205759403792808018$35$$35$d3Ky lit$36$main))
(define-fun b$36$$35$$35$168 () Bool (and (= (apply$35$$35$18 (as len Int) lq_anf$36$$35$$35$7205759403792808041$35$$35$d3KV) (+ (apply$35$$35$18 (as len Int) lq_anf$36$$35$$35$7205759403792808039$35$$35$d3KT) (apply$35$$35$18 (as len Int) lq_anf$36$$35$$35$7205759403792808040$35$$35$d3KU))) (>= (apply$35$$35$18 (as len Int) lq_anf$36$$35$$35$7205759403792808041$35$$35$d3KV) 0)))
(define-fun b$36$$35$$35$137 () Bool (and (= (apply$35$$35$18 (as len Int) lq_anf$36$$35$$35$7205759403792808019$35$$35$d3Kz) (strLen lq_anf$36$$35$$35$7205759403792808018$35$$35$d3Ky)) (>= (apply$35$$35$18 (as len Int) lq_anf$36$$35$$35$7205759403792808019$35$$35$d3Kz) 0) (= lq_anf$36$$35$$35$7205759403792808019$35$$35$d3Kz lq_anf$36$$35$$35$7205759403792808018$35$$35$d3Ky)))
(define-fun b$36$$35$$35$138 () Bool (= lq_anf$36$$35$$35$7205759403792808020$35$$35$d3KA lit$36$Data.ByteString.Builder.Prim.Internal.UncheckedShifts))
(define-fun b$36$$35$$35$139 () Bool (and (= (apply$35$$35$18 (as len Int) lq_anf$36$$35$$35$7205759403792808021$35$$35$d3KB) (strLen lq_anf$36$$35$$35$7205759403792808020$35$$35$d3KA)) (>= (apply$35$$35$18 (as len Int) lq_anf$36$$35$$35$7205759403792808021$35$$35$d3KB) 0) (= lq_anf$36$$35$$35$7205759403792808021$35$$35$d3KB lq_anf$36$$35$$35$7205759403792808020$35$$35$d3KA)))
(define-fun b$36$$35$$35$140 () Bool (= lq_anf$36$$35$$35$7205759403792808022$35$$35$d3KC lit$36$$47$Users$47$pratyushsahu$47$Desktop$47$Research$47$bytestring_lh$45$llm$47$Data$47$ByteString$47$Builder$47$Prim$47$Internal$47$UncheckedShifts.hs))
(define-fun b$36$$35$$35$141 () Bool (and (= (apply$35$$35$18 (as len Int) lq_anf$36$$35$$35$7205759403792808023$35$$35$d3KD) (strLen lq_anf$36$$35$$35$7205759403792808022$35$$35$d3KC)) (>= (apply$35$$35$18 (as len Int) lq_anf$36$$35$$35$7205759403792808023$35$$35$d3KD) 0) (= lq_anf$36$$35$$35$7205759403792808023$35$$35$d3KD lq_anf$36$$35$$35$7205759403792808022$35$$35$d3KC)))
(define-fun b$36$$35$$35$142 () Bool (= lq_anf$36$$35$$35$7205759403792808024$35$$35$d3KE 101))
(define-fun b$36$$35$$35$143 () Bool (= lq_anf$36$$35$$35$7205759403792808025$35$$35$d3KF lq_anf$36$$35$$35$7205759403792808024$35$$35$d3KE))
(define-fun b$36$$35$$35$144 () Bool (= lq_anf$36$$35$$35$7205759403792808026$35$$35$d3KG 17))
(define-fun b$36$$35$$35$113 () Bool (= lq_anf$36$$35$$35$7205759403792807997$35$$35$d3Kd lit$36$error))
(define-fun b$36$$35$$35$145 () Bool (= lq_anf$36$$35$$35$7205759403792808027$35$$35$d3KH lq_anf$36$$35$$35$7205759403792808026$35$$35$d3KG))
(define-fun b$36$$35$$35$50 () Bool (not GHC.Types.False))
(define-fun b$36$$35$$35$114 () Bool (and (= (apply$35$$35$18 (as len Int) lq_anf$36$$35$$35$7205759403792807998$35$$35$d3Ke) (strLen lq_anf$36$$35$$35$7205759403792807997$35$$35$d3Kd)) (>= (apply$35$$35$18 (as len Int) lq_anf$36$$35$$35$7205759403792807998$35$$35$d3Ke) 0) (= lq_anf$36$$35$$35$7205759403792807998$35$$35$d3Ke lq_anf$36$$35$$35$7205759403792807997$35$$35$d3Kd)))
(define-fun b$36$$35$$35$146 () Bool (= lq_anf$36$$35$$35$7205759403792808028$35$$35$d3KI 101))
(define-fun b$36$$35$$35$115 () Bool (= lq_anf$36$$35$$35$7205759403792807999$35$$35$d3Kf lit$36$main))
(define-fun b$36$$35$$35$147 () Bool (= lq_anf$36$$35$$35$7205759403792808029$35$$35$d3KJ lq_anf$36$$35$$35$7205759403792808028$35$$35$d3KI))
(define-fun b$36$$35$$35$116 () Bool (and (= (apply$35$$35$18 (as len Int) lq_anf$36$$35$$35$7205759403792808000$35$$35$d3Kg) (strLen lq_anf$36$$35$$35$7205759403792807999$35$$35$d3Kf)) (>= (apply$35$$35$18 (as len Int) lq_anf$36$$35$$35$7205759403792808000$35$$35$d3Kg) 0) (= lq_anf$36$$35$$35$7205759403792808000$35$$35$d3Kg lq_anf$36$$35$$35$7205759403792807999$35$$35$d3Kf)))
(define-fun b$36$$35$$35$148 () Bool (= lq_anf$36$$35$$35$7205759403792808030$35$$35$d3KK 26))
(define-fun b$36$$35$$35$117 () Bool (= lq_anf$36$$35$$35$7205759403792808001$35$$35$d3Kh lit$36$Data.ByteString.Builder.Prim.Internal.UncheckedShifts))
(define-fun b$36$$35$$35$149 () Bool (= lq_anf$36$$35$$35$7205759403792808031$35$$35$d3KL lq_anf$36$$35$$35$7205759403792808030$35$$35$d3KK))
(define-fun b$36$$35$$35$118 () Bool (and (= (apply$35$$35$18 (as len Int) lq_anf$36$$35$$35$7205759403792808002$35$$35$d3Ki) (strLen lq_anf$36$$35$$35$7205759403792808001$35$$35$d3Kh)) (>= (apply$35$$35$18 (as len Int) lq_anf$36$$35$$35$7205759403792808002$35$$35$d3Ki) 0) (= lq_anf$36$$35$$35$7205759403792808002$35$$35$d3Ki lq_anf$36$$35$$35$7205759403792808001$35$$35$d3Kh)))
(define-fun b$36$$35$$35$119 () Bool (= lq_anf$36$$35$$35$7205759403792808003$35$$35$d3Kj lit$36$$47$Users$47$pratyushsahu$47$Desktop$47$Research$47$bytestring_lh$45$llm$47$Data$47$ByteString$47$Builder$47$Prim$47$Internal$47$UncheckedShifts.hs))
(define-fun b$36$$35$$35$56 () Bool GHC.Types.True)
(define-fun b$36$$35$$35$120 () Bool (and (= (apply$35$$35$18 (as len Int) lq_anf$36$$35$$35$7205759403792808004$35$$35$d3Kk) (strLen lq_anf$36$$35$$35$7205759403792808003$35$$35$d3Kj)) (>= (apply$35$$35$18 (as len Int) lq_anf$36$$35$$35$7205759403792808004$35$$35$d3Kk) 0) (= lq_anf$36$$35$$35$7205759403792808004$35$$35$d3Kk lq_anf$36$$35$$35$7205759403792808003$35$$35$d3Kj)))
(define-fun b$36$$35$$35$152 () Bool (and (= (apply$35$$35$3 (as fst Int) lq_anf$36$$35$$35$7205759403792808033$35$$35$d3KN) lq_anf$36$$35$$35$7205759403792808017$35$$35$d3Kx) (= (apply$35$$35$0 (as snd Int) lq_anf$36$$35$$35$7205759403792808033$35$$35$d3KN) lq_anf$36$$35$$35$7205759403792808032$35$$35$d3KM) (= (apply$35$$35$3 (as x_Tuple21 Int) lq_anf$36$$35$$35$7205759403792808033$35$$35$d3KN) lq_anf$36$$35$$35$7205759403792808017$35$$35$d3Kx) (= (apply$35$$35$0 (as x_Tuple22 Int) lq_anf$36$$35$$35$7205759403792808033$35$$35$d3KN) lq_anf$36$$35$$35$7205759403792808032$35$$35$d3KM)))
(define-fun b$36$$35$$35$121 () Bool (= lq_anf$36$$35$$35$7205759403792808005$35$$35$d3Kl 105))
(define-fun b$36$$35$$35$122 () Bool (= lq_anf$36$$35$$35$7205759403792808006$35$$35$d3Km lq_anf$36$$35$$35$7205759403792808005$35$$35$d3Kl))
(define-fun b$36$$35$$35$123 () Bool (= lq_anf$36$$35$$35$7205759403792808007$35$$35$d3Kn 11))
(define-fun b$36$$35$$35$124 () Bool (= lq_anf$36$$35$$35$7205759403792808008$35$$35$d3Ko lq_anf$36$$35$$35$7205759403792808007$35$$35$d3Kn))
(define-fun b$36$$35$$35$125 () Bool (= lq_anf$36$$35$$35$7205759403792808009$35$$35$d3Kp 105))
(define-fun b$36$$35$$35$126 () Bool (= lq_anf$36$$35$$35$7205759403792808010$35$$35$d3Kq lq_anf$36$$35$$35$7205759403792808009$35$$35$d3Kp))
(define-fun b$36$$35$$35$127 () Bool (= lq_anf$36$$35$$35$7205759403792808011$35$$35$d3Kr 16))
(define-fun b$36$$35$$35$159 () Bool (= lq_anf$36$$35$$35$7205759403792808036$35$$35$d3KQ ds_d3JT))
(push 1)
(push 1)
(assert (and false b$36$$35$$35$128 b$36$$35$$35$160 b$36$$35$$35$162 b$36$$35$$35$131 b$36$$35$$35$163 b$36$$35$$35$323 b$36$$35$$35$164 b$36$$35$$35$165 b$36$$35$$35$134 b$36$$35$$35$166 b$36$$35$$35$135 b$36$$35$$35$167 b$36$$35$$35$136 b$36$$35$$35$168 b$36$$35$$35$137 b$36$$35$$35$138 b$36$$35$$35$139 b$36$$35$$35$140 b$36$$35$$35$141 b$36$$35$$35$142 b$36$$35$$35$143 b$36$$35$$35$144 b$36$$35$$35$113 b$36$$35$$35$145 b$36$$35$$35$50 b$36$$35$$35$114 b$36$$35$$35$146 b$36$$35$$35$115 b$36$$35$$35$147 b$36$$35$$35$116 b$36$$35$$35$148 b$36$$35$$35$117 b$36$$35$$35$149 b$36$$35$$35$118 b$36$$35$$35$119 b$36$$35$$35$56 b$36$$35$$35$120 b$36$$35$$35$152 b$36$$35$$35$121 b$36$$35$$35$122 b$36$$35$$35$123 b$36$$35$$35$124 b$36$$35$$35$125 b$36$$35$$35$126 b$36$$35$$35$127 b$36$$35$$35$159))
(push 1)
(assert (not false))
(check-sat)
; SMT Says: Unsat
(pop 1)
(pop 1)
(pop 1)
(pop 1)
